language Essence 1.3

letting class be
        function(1 --> 2, 2 --> 7, 3 --> 2, 4 --> 6, 5 --> 2, 6 --> 5, 7 --> 7, 8 --> 2, 9 --> 4, 10 --> 8, 11 --> 7,
                 12 --> 4, 13 --> 3, 14 --> 6, 15 --> 3, 16 --> 1, 17 --> 8, 18 --> 8, 19 --> 2, 20 --> 4, 21 --> 4,
                 22 --> 7, 23 --> 5, 24 --> 1, 25 --> 1, 26 --> 7, 27 --> 3, 28 --> 6)
letting deck_length be 18
letting deck_width be 89
letting length be
        function(1 --> 2, 2 --> 14, 3 --> 9, 4 --> 1, 5 --> 5, 6 --> 9, 7 --> 7, 8 --> 12, 9 --> 17, 10 --> 4, 11 --> 4,
                 12 --> 10, 13 --> 12, 14 --> 16, 15 --> 14, 16 --> 10, 17 --> 4, 18 --> 5, 19 --> 7, 20 --> 12,
                 21 --> 13, 22 --> 6, 23 --> 16, 24 --> 9, 25 --> 1, 26 --> 5, 27 --> 6, 28 --> 10)
letting n_classes be 8
letting n_containers be 28
letting separation be function()
letting width be
        function(1 --> 2, 2 --> 1, 3 --> 1, 4 --> 1, 5 --> 1, 6 --> 1, 7 --> 1, 8 --> 1, 9 --> 24, 10 --> 1, 11 --> 1,
                 12 --> 1, 13 --> 1, 14 --> 3, 15 --> 2, 16 --> 1, 17 --> 1, 18 --> 1, 19 --> 1, 20 --> 1, 21 --> 1,
                 22 --> 1, 23 --> 2, 24 --> 2, 25 --> 1, 26 --> 1, 27 --> 1, 28 --> 1)
